NAME: instance_233
TYPE: TSP
DIMENSION: 20
EDGE_WEIGHT_TYPE: EUC_2D
NODE_COORD_SECTION
0 81.89 38.58
1 96.56 86.15
2 28.08 51.56
3 31.37 27.52
4 2.90 0.61
5 17.75 40.28
6 84.43 46.86
7 38.80 88.91
8 2.38 47.23
9 67.67 77.05
10 15.25 40.88
11 42.05 95.94
12 49.96 25.58
13 56.26 64.18
14 57.05 18.85
15 97.36 21.96
16 28.10 46.53
17 48.39 74.08
18 5.45 80.76
19 67.25 76.12
EOF
